
Gurobi 8.1.1 (linux64, Python) logging started Wed May 22 15:00:48 2019

Academic license - for non-commercial use only

Gurobi 8.1.1 (linux64, Python) logging started Wed May 22 15:04:25 2019

Academic license - for non-commercial use only

Gurobi 8.1.1 (linux64, Python) logging started Wed May 22 15:06:44 2019

Academic license - for non-commercial use only

Gurobi 8.1.1 (linux64, Python) logging started Wed May 22 15:08:30 2019

Academic license - for non-commercial use only

Gurobi 8.1.1 (linux64, Python) logging started Wed May 22 15:12:55 2019

Academic license - for non-commercial use only

Gurobi 8.1.1 (linux64, Python) logging started Wed May 22 15:15:40 2019

Academic license - for non-commercial use only
